c Output file
c ECommerceWebsite 1
c Catalogue 2
c Payment 3
c Security 4
c Search 5
c BankTransfer 6
c CreditCard 7
c High 8
c Standard 9
p cnf 9 16
1 0
1 -2 0
2 -1 0
3 -6 0
3 -7 0
6 7 -3 0
1 -3 0
3 -1 0
4 -8 0
4 -9 0
8 9 -4 0
-8 -9 0
1 -4 0
4 -1 0
1 -5 0
-7 8 0